presolving:
(round 1, fast)       0 del vars, 0 del conss, 0 add conss, 100 chg bounds, 0 chg sides, 0 chg coeffs, 0 upgd conss, 0 impls, 5100 clqs
(round 2, fast)       50 del vars, 0 del conss, 0 add conss, 100 chg bounds, 0 chg sides, 0 chg coeffs, 0 upgd conss, 0 impls, 5100 clqs
(round 3, fast)       100 del vars, 50 del conss, 0 add conss, 100 chg bounds, 0 chg sides, 0 chg coeffs, 0 upgd conss, 0 impls, 5100 clqs
   (0.0s) running MILP presolver
   (0.1s) MILP presolver (2 rounds): 0 aggregations, 0 fixings, 0 bound changes
(round 4, medium)     100 del vars, 5250 del conss, 5100 add conss, 100 chg bounds, 0 chg sides, 0 chg coeffs, 0 upgd conss, 0 impls, 5100 clqs
(round 5, exhaustive) 100 del vars, 5250 del conss, 5100 add conss, 100 chg bounds, 0 chg sides, 0 chg coeffs, 5100 upgd conss, 0 impls, 5100 clqs
   (0.2s) probing: 51/5050 (1.0%) - 0 fixings, 0 aggregations, 0 implications, 0 bound changes
   (0.2s) probing aborted: 50/50 successive totally useless probings
   (0.2s) symmetry computation started: requiring (bin +, int -, cont +), (fixed: bin -, int +, cont -)
   (0.2s) no symmetry present
presolving (6 rounds: 6 fast, 3 medium, 2 exhaustive):
 100 deleted vars, 5250 deleted constraints, 5100 added constraints, 100 tightened bounds, 0 added holes, 0 changed sides, 0 changed coefficients
 0 implications, 5100 cliques
presolved problem has 5050 variables (5050 bin, 0 int, 0 impl, 0 cont) and 5100 constraints
   5100 constraints of type <setppc>
Presolving Time: 0.19

 time | node  | left  |LP iter|LP it/n|mem/heur|mdpt |vars |cons |rows |cuts |sepa|confs|strbr|  dualbound   | primalbound  |  gap   | compl. 
p 0.2s|     1 |     0 |     0 |     - |  clique|   0 |5050 |5100 |5100 |   0 |  0 |   0 |   0 |-9.480017e+02 |-1.124258e+05 |  Large | unknown
p 0.3s|     1 |     0 |     0 |     - | vbounds|   0 |5050 |5100 |5100 |   0 |  0 |   0 |   0 |-9.480017e+02 |-5.854768e+04 |6075.90%| unknown
p 0.3s|     1 |     0 |     0 |     - | vbounds|   0 |5050 |5100 |5100 |   0 |  0 |   0 |   0 |-9.480017e+02 |-5.758246e+04 |5974.09%| unknown
  1.0s|     1 |     0 |  3292 |     - |    69M |   0 |5050 |5110 |5100 |   0 |  0 |  10 |   0 |-5.253367e+04 |-5.758246e+04 |   9.61%| unknown
  3.2s|     1 |     0 |  3624 |     - |    75M |   0 |5050 |5110 |5102 |   2 |  1 |  10 |   0 |-5.255517e+04 |-5.758246e+04 |   9.57%| unknown
  3.6s|     1 |     0 |  3750 |     - |    76M |   0 |5050 |5110 |5104 |   4 |  2 |  10 |   0 |-5.256154e+04 |-5.758246e+04 |   9.55%| unknown
  6.1s|     1 |     0 |  3957 |     - |    80M |   0 |5050 |5110 |5107 |   7 |  3 |  10 |   0 |-5.256647e+04 |-5.758246e+04 |   9.54%| unknown
  6.4s|     1 |     0 |  4157 |     - |    81M |   0 |5050 |5110 |5109 |   9 |  4 |  10 |   0 |-5.257056e+04 |-5.758246e+04 |   9.53%| unknown
  6.8s|     1 |     0 |  4238 |     - |    82M |   0 |5050 |5110 |5110 |  10 |  5 |  10 |   0 |-5.257211e+04 |-5.758246e+04 |   9.53%| unknown
  7.1s|     1 |     0 |  4316 |     - |    83M |   0 |5050 |5110 |5111 |  11 |  6 |  10 |   0 |-5.257350e+04 |-5.758246e+04 |   9.53%| unknown
  8.9s|     1 |     0 |  4544 |     - |    87M |   0 |5050 |5110 |5113 |  13 |  7 |  10 |   0 |-5.257805e+04 |-5.758246e+04 |   9.52%| unknown
  9.3s|     1 |     0 |  4627 |     - |    88M |   0 |5050 |5110 |5114 |  14 |  8 |  10 |   0 |-5.257889e+04 |-5.758246e+04 |   9.52%| unknown
  9.6s|     1 |     0 |  4712 |     - |    89M |   0 |5050 |5110 |5115 |  15 |  9 |  10 |   0 |-5.258018e+04 |-5.758246e+04 |   9.51%| unknown
  9.9s|     1 |     0 |  4807 |     - |    89M |   0 |5050 |5110 |5116 |  16 | 10 |  10 |   0 |-5.258156e+04 |-5.758246e+04 |   9.51%| unknown
 10.1s|     1 |     0 |  4882 |     - |    90M |   0 |5050 |5110 |5117 |  17 | 11 |  10 |   0 |-5.258217e+04 |-5.758246e+04 |   9.51%| unknown
 time | node  | left  |LP iter|LP it/n|mem/heur|mdpt |vars |cons |rows |cuts |sepa|confs|strbr|  dualbound   | primalbound  |  gap   | compl. 
 10.3s|     1 |     0 |  4964 |     - |    90M |   0 |5050 |5110 |5118 |  18 | 12 |  10 |   0 |-5.258275e+04 |-5.758246e+04 |   9.51%| unknown
d12.4s|     1 |     0 | 12041 |     - |farkasdi|   0 |5050 |5101 |5118 |   0 | 12 |  10 |   0 |-5.258275e+04 |-5.439147e+04 |   3.44%| unknown
L20.2s|     1 |     0 | 26371 |     - |    rens|   0 |5050 |5101 |5118 |  18 | 12 |  10 |   0 |-5.258275e+04 |-5.430351e+04 |   3.27%| unknown
 20.3s|     1 |     0 | 26371 |     - |    91M |   0 |5050 |5101 |5118 |  18 | 12 |  10 |   0 |-5.258275e+04 |-5.430351e+04 |   3.27%| unknown
 20.5s|     1 |     0 | 26672 |     - |    92M |   0 |5050 |5101 |5119 |  19 | 13 |  10 |   0 |-5.258510e+04 |-5.430351e+04 |   3.27%| unknown
 27.5s|     1 |     2 | 26672 |     - |    92M |   0 |5050 |5101 |5119 |  19 | 14 |  10 |  38 |-5.261592e+04 |-5.430351e+04 |   3.21%| unknown
*31.5s|     3 |     2 | 30496 |12615.5 |strongbr|   2 |5050 |5101 |5117 |  19 |  1 |  10 |  64 |-5.261592e+04 |-5.347631e+04 |   1.64%| unknown
 66.4s|   100 |    29 | 65883 | 612.3 |   104M |  22 |5050 |5166 |5122 |  36 |  1 |  75 | 262 |-5.267921e+04 |-5.347631e+04 |   1.51%|  44.95%
 75.2s|   200 |    45 | 83957 | 395.4 |   117M |  24 |5050 |5175 |5124 |  61 |  1 |  84 | 294 |-5.282220e+04 |-5.347631e+04 |   1.24%|  51.23%
 89.4s|   300 |    39 |109966 | 350.2 |   131M |  24 |5050 |5195 |5120 |  91 |  1 | 104 | 334 |-5.299342e+04 |-5.347631e+04 |   0.91%|  59.08%

SCIP Status        : problem is solved [optimal solution found]
Solving Time (sec) : 96.71
Solving Nodes      : 359
Primal Bound       : -5.34763057031868e+04 (9 solutions)
Dual Bound         : -5.34763057031868e+04
Gap                : 0.00 %
Solve Status: optimal
Solve Time: 96.71 seconds
Objective Value: -53476.31
